p cnf 296 1036
1 0
2 0
3 0
4 0
5 0
-6 0
7 0
8 0
9 0
10 0
11 12 13 14 0
-11 -12 0
-11 -13 0
-11 -14 0
-12 -13 0
-12 -14 0
-13 -14 0
-1 15 -16 0
1 -15 -16 0
-1 -15 16 0
1 15 16 0
-11 -16 0
1 -17 -18 0
-1 17 -18 0
18 -1 -17 0
18 1 17 0
-12 18 0
-15 19 0
-17 19 0
15 17 -19 0
1 -19 -20 0
-1 19 -20 0
-1 -19 20 0
1 19 20 0
-13 20 0
15 21 0
17 21 0
-17 -15 -21 0
-1 21 -22 0
1 -21 -22 0
22 -21 -1 0
1 21 22 0
-14 -22 0
17 -23 -24 0
23 -17 -24 0
-17 -23 24 0
23 17 24 0
-11 -24 0
23 -15 -25 0
15 -23 -25 0
25 -23 -15 0
25 23 15 0
-12 25 0
23 -19 -26 0
-23 19 -26 0
-23 -19 26 0
23 19 26 0
-13 26 0
17 27 0
15 27 0
-17 -15 -27 0
-23 27 -28 0
23 -27 -28 0
28 -27 -23 0
23 27 28 0
-14 -28 0
-2 29 -30 0
2 -29 -30 0
-2 -29 30 0
2 29 30 0
-11 -30 0
2 -31 -32 0
-2 31 -32 0
32 -2 -31 0
32 2 31 0
-12 32 0
-29 33 0
-31 33 0
-34 33 0
-35 33 0
-36 33 0
-37 33 0
-38 33 0
39 0
2 -33 -40 0
-2 33 -40 0
-2 -33 40 0
2 33 40 0
-13 40 0
29 41 0
31 41 0
34 41 0
35 41 0
36 41 0
37 41 0
38 41 0
-42 0
-2 41 -43 0
2 -41 -43 0
43 -41 -2 0
2 41 43 0
-14 -43 0
-44 31 -45 0
44 -31 -45 0
-44 -31 45 0
44 31 45 0
-11 -45 0
44 -34 -46 0
-44 34 -46 0
46 -44 -34 0
46 44 34 0
-12 46 0
-31 47 0
-34 47 0
-35 47 0
-36 47 0
-37 47 0
-38 47 0
31 34 35 36 37 38 -47 0
44 -47 -48 0
-44 47 -48 0
-44 -47 48 0
44 47 48 0
-13 48 0
31 49 0
34 49 0
35 49 0
36 49 0
37 49 0
38 49 0
-50 0
-44 49 -51 0
44 -49 -51 0
51 -49 -44 0
44 49 51 0
-14 -51 0
-52 34 -53 0
52 -34 -53 0
-52 -34 53 0
52 34 53 0
-11 -53 0
52 -35 -54 0
-52 35 -54 0
54 -52 -35 0
54 52 35 0
-12 54 0
-34 55 0
-35 55 0
-36 55 0
-37 55 0
-38 55 0
34 35 36 37 38 -55 0
52 -55 -56 0
-52 55 -56 0
-52 -55 56 0
52 55 56 0
-13 56 0
34 57 0
35 57 0
36 57 0
37 57 0
38 57 0
-58 0
-52 57 -59 0
52 -57 -59 0
59 -57 -52 0
52 57 59 0
-14 -59 0
-60 35 -61 0
60 -35 -61 0
-60 -35 61 0
60 35 61 0
-11 -61 0
60 -36 -62 0
-60 36 -62 0
62 -60 -36 0
62 60 36 0
-12 62 0
-35 63 0
-36 63 0
-37 63 0
-38 63 0
35 36 37 38 -63 0
60 -63 -64 0
-60 63 -64 0
-60 -63 64 0
60 63 64 0
-13 64 0
35 65 0
36 65 0
37 65 0
38 65 0
-66 0
-60 65 -67 0
60 -65 -67 0
67 -65 -60 0
60 65 67 0
-14 -67 0
-68 36 -69 0
68 -36 -69 0
-68 -36 69 0
68 36 69 0
-11 -69 0
68 -37 -70 0
-68 37 -70 0
70 -68 -37 0
70 68 37 0
-12 70 0
68 -63 -71 0
-68 63 -71 0
-68 -63 71 0
68 63 71 0
-13 71 0
-68 65 -72 0
68 -65 -72 0
72 -65 -68 0
68 65 72 0
-14 -72 0
-73 37 -74 0
73 -37 -74 0
-73 -37 74 0
73 37 74 0
-11 -74 0
73 -38 -75 0
-73 38 -75 0
75 -73 -38 0
75 73 38 0
-12 75 0
73 -63 -76 0
-73 63 -76 0
-73 -63 76 0
73 63 76 0
-13 76 0
-73 65 -77 0
73 -65 -77 0
77 -65 -73 0
73 65 77 0
-14 -77 0
-78 38 -79 0
78 -38 -79 0
-78 -38 79 0
78 38 79 0
-11 -79 0
78 -35 -80 0
-78 35 -80 0
80 -78 -35 0
80 78 35 0
-12 80 0
78 -63 -81 0
-78 63 -81 0
-78 -63 81 0
78 63 81 0
-13 81 0
-78 65 -82 0
78 -65 -82 0
82 -65 -78 0
78 65 82 0
-14 -82 0
-3 83 -84 0
3 -83 -84 0
-3 -83 84 0
3 83 84 0
-11 -84 0
3 -85 -86 0
-3 85 -86 0
86 -3 -85 0
86 3 85 0
-12 86 0
-83 87 0
-85 87 0
-88 87 0
-89 87 0
-90 87 0
-91 87 0
-92 87 0
93 0
3 -87 -94 0
-3 87 -94 0
-3 -87 94 0
3 87 94 0
-13 94 0
83 95 0
85 95 0
88 95 0
89 95 0
90 95 0
91 95 0
92 95 0
-96 0
-3 95 -97 0
3 -95 -97 0
97 -95 -3 0
3 95 97 0
-14 -97 0
-98 85 -99 0
98 -85 -99 0
-98 -85 99 0
98 85 99 0
-11 -99 0
98 -88 -100 0
-98 88 -100 0
100 -98 -88 0
100 98 88 0
-12 100 0
-85 101 0
-88 101 0
-89 101 0
-90 101 0
-91 101 0
-92 101 0
102 0
98 -101 -103 0
-98 101 -103 0
-98 -101 103 0
98 101 103 0
-13 103 0
85 104 0
88 104 0
89 104 0
90 104 0
91 104 0
92 104 0
-105 0
-98 104 -106 0
98 -104 -106 0
106 -104 -98 0
98 104 106 0
-14 -106 0
-4 88 -107 0
4 -88 -107 0
-4 -88 107 0
4 88 107 0
-11 -107 0
4 -89 -108 0
-4 89 -108 0
108 -4 -89 0
108 4 89 0
-12 108 0
-88 109 0
-89 109 0
-90 109 0
-91 109 0
-92 109 0
88 89 90 91 92 -109 0
4 -109 -110 0
-4 109 -110 0
-4 -109 110 0
4 109 110 0
-13 110 0
88 111 0
89 111 0
90 111 0
91 111 0
92 111 0
-112 0
-4 111 -113 0
4 -111 -113 0
113 -111 -4 0
4 111 113 0
-14 -113 0
-114 89 -115 0
114 -89 -115 0
-114 -89 115 0
114 89 115 0
-11 -115 0
114 -90 -116 0
-114 90 -116 0
116 -114 -90 0
116 114 90 0
-12 116 0
-89 117 0
-90 117 0
-91 117 0
-92 117 0
89 90 91 92 -117 0
114 -117 -118 0
-114 117 -118 0
-114 -117 118 0
114 117 118 0
-13 118 0
89 119 0
90 119 0
91 119 0
92 119 0
-120 0
-114 119 -121 0
114 -119 -121 0
121 -119 -114 0
114 119 121 0
-14 -121 0
-122 90 -123 0
122 -90 -123 0
-122 -90 123 0
122 90 123 0
-11 -123 0
122 -91 -124 0
-122 91 -124 0
124 -122 -91 0
124 122 91 0
-12 124 0
122 -117 -125 0
-122 117 -125 0
-122 -117 125 0
122 117 125 0
-13 125 0
-122 119 -126 0
122 -119 -126 0
126 -119 -122 0
122 119 126 0
-14 -126 0
-127 91 -128 0
127 -91 -128 0
-127 -91 128 0
127 91 128 0
-11 -128 0
127 -92 -129 0
-127 92 -129 0
129 -127 -92 0
129 127 92 0
-12 129 0
127 -117 -130 0
-127 117 -130 0
-127 -117 130 0
127 117 130 0
-13 130 0
-127 119 -131 0
127 -119 -131 0
131 -119 -127 0
127 119 131 0
-14 -131 0
-132 92 -133 0
132 -92 -133 0
-132 -92 133 0
132 92 133 0
-11 -133 0
132 -89 -134 0
-132 89 -134 0
134 -132 -89 0
134 132 89 0
-12 134 0
132 -117 -135 0
-132 117 -135 0
-132 -117 135 0
132 117 135 0
-13 135 0
-132 119 -136 0
132 -119 -136 0
136 -119 -132 0
132 119 136 0
-14 -136 0
-5 137 -138 0
5 -137 -138 0
-5 -137 138 0
5 137 138 0
-11 -138 0
5 -139 -140 0
-5 139 -140 0
140 -5 -139 0
140 5 139 0
-12 140 0
-137 141 0
-139 141 0
-142 141 0
137 139 142 -141 0
5 -141 -143 0
-5 141 -143 0
-5 -141 143 0
5 141 143 0
-13 143 0
137 144 0
139 144 0
142 144 0
-137 -139 -142 -144 0
-5 144 -145 0
5 -144 -145 0
145 -144 -5 0
5 144 145 0
-14 -145 0
-146 139 -147 0
146 -139 -147 0
-146 -139 147 0
146 139 147 0
-11 -147 0
146 -142 -148 0
-146 142 -148 0
148 -146 -142 0
148 146 142 0
-12 148 0
-139 149 0
-142 149 0
139 142 -149 0
146 -149 -150 0
-146 149 -150 0
-146 -149 150 0
146 149 150 0
-13 150 0
139 151 0
142 151 0
-139 -142 -151 0
-146 151 -152 0
146 -151 -152 0
152 -151 -146 0
146 151 152 0
-14 -152 0
-6 142 -153 0
6 -142 -153 0
-6 -142 153 0
6 142 153 0
-11 -153 0
6 -142 -154 0
-6 142 -154 0
154 -6 -142 0
154 6 142 0
-12 154 0
-13 154 0
-14 154 0
-7 155 -156 0
7 -155 -156 0
-7 -155 156 0
7 155 156 0
-11 -156 0
7 -157 -158 0
-7 157 -158 0
158 -7 -157 0
158 7 157 0
-12 158 0
-155 159 0
-157 159 0
-160 159 0
-161 159 0
-162 159 0
155 157 160 161 162 -159 0
7 -159 -163 0
-7 159 -163 0
-7 -159 163 0
7 159 163 0
-13 163 0
155 164 0
157 164 0
160 164 0
161 164 0
162 164 0
-165 0
-7 164 -166 0
7 -164 -166 0
166 -164 -7 0
7 164 166 0
-14 -166 0
-167 157 -168 0
167 -157 -168 0
-167 -157 168 0
167 157 168 0
-11 -168 0
167 -160 -169 0
-167 160 -169 0
169 -167 -160 0
169 167 160 0
-12 169 0
-157 170 0
-160 170 0
-161 170 0
-162 170 0
157 160 161 162 -170 0
167 -170 -171 0
-167 170 -171 0
-167 -170 171 0
167 170 171 0
-13 171 0
157 172 0
160 172 0
161 172 0
162 172 0
-173 0
-167 172 -174 0
167 -172 -174 0
174 -172 -167 0
167 172 174 0
-14 -174 0
-175 160 -176 0
175 -160 -176 0
-175 -160 176 0
175 160 176 0
-11 -176 0
175 -161 -177 0
-175 161 -177 0
177 -175 -161 0
177 175 161 0
-12 177 0
-160 178 0
-161 178 0
-162 178 0
160 161 162 -178 0
175 -178 -179 0
-175 178 -179 0
-175 -178 179 0
175 178 179 0
-13 179 0
160 180 0
161 180 0
162 180 0
-160 -161 -162 -180 0
-175 180 -181 0
175 -180 -181 0
181 -180 -175 0
175 180 181 0
-14 -181 0
-182 161 -183 0
182 -161 -183 0
-182 -161 183 0
182 161 183 0
-11 -183 0
182 -162 -184 0
-182 162 -184 0
184 -182 -162 0
184 182 162 0
-12 184 0
182 -178 -185 0
-182 178 -185 0
-182 -178 185 0
182 178 185 0
-13 185 0
-182 180 -186 0
182 -180 -186 0
186 -180 -182 0
182 180 186 0
-14 -186 0
-187 162 -188 0
187 -162 -188 0
-187 -162 188 0
187 162 188 0
-11 -188 0
187 -160 -189 0
-187 160 -189 0
189 -187 -160 0
189 187 160 0
-12 189 0
187 -178 -190 0
-187 178 -190 0
-187 -178 190 0
187 178 190 0
-13 190 0
-187 180 -191 0
187 -180 -191 0
191 -180 -187 0
187 180 191 0
-14 -191 0
-8 192 -193 0
8 -192 -193 0
-8 -192 193 0
8 192 193 0
-11 -193 0
8 -194 -195 0
-8 194 -195 0
195 -8 -194 0
195 8 194 0
-12 195 0
-15 196 0
-17 196 0
-192 196 0
-194 196 0
-197 196 0
-198 196 0
15 17 192 194 197 198 -196 0
8 -196 -199 0
-8 196 -199 0
-8 -196 199 0
8 196 199 0
-13 199 0
17 200 0
15 200 0
192 200 0
194 200 0
197 200 0
198 200 0
-201 0
-8 200 -202 0
8 -200 -202 0
202 -200 -8 0
8 200 202 0
-14 -202 0
-203 194 -204 0
203 -194 -204 0
-203 -194 204 0
203 194 204 0
-11 -204 0
203 -197 -205 0
-203 197 -205 0
205 -203 -197 0
205 203 197 0
-12 205 0
-15 206 0
-17 206 0
-194 206 0
-197 206 0
-198 206 0
15 17 194 197 198 -206 0
203 -206 -207 0
-203 206 -207 0
-203 -206 207 0
203 206 207 0
-13 207 0
17 208 0
15 208 0
194 208 0
197 208 0
198 208 0
-209 0
-203 208 -210 0
203 -208 -210 0
210 -208 -203 0
203 208 210 0
-14 -210 0
-211 197 -212 0
211 -197 -212 0
-211 -197 212 0
211 197 212 0
-11 -212 0
211 -198 -213 0
-211 198 -213 0
213 -211 -198 0
213 211 198 0
-12 213 0
-15 214 0
-17 214 0
-197 214 0
-198 214 0
15 17 197 198 -214 0
211 -214 -215 0
-211 214 -215 0
-211 -214 215 0
211 214 215 0
-13 215 0
17 216 0
15 216 0
197 216 0
198 216 0
-217 0
-211 216 -218 0
211 -216 -218 0
218 -216 -211 0
211 216 218 0
-14 -218 0
-219 198 -220 0
219 -198 -220 0
-219 -198 220 0
219 198 220 0
-11 -220 0
219 -15 -221 0
15 -219 -221 0
221 -219 -15 0
221 219 15 0
-12 221 0
-15 222 0
-17 222 0
-198 222 0
15 17 198 -222 0
219 -222 -223 0
-219 222 -223 0
-219 -222 223 0
219 222 223 0
-13 223 0
17 224 0
15 224 0
198 224 0
-17 -15 -198 -224 0
-219 224 -225 0
219 -224 -225 0
225 -224 -219 0
219 224 225 0
-14 -225 0
-9 226 -227 0
9 -226 -227 0
-9 -226 227 0
9 226 227 0
-11 -227 0
9 -228 -229 0
-9 228 -229 0
229 -9 -228 0
229 9 228 0
-12 229 0
-160 230 0
-161 230 0
-162 230 0
-226 230 0
-228 230 0
-231 230 0
-232 230 0
233 0
9 -230 -234 0
-9 230 -234 0
-9 -230 234 0
9 230 234 0
-13 234 0
160 235 0
161 235 0
162 235 0
226 235 0
228 235 0
231 235 0
232 235 0
-236 0
-9 235 -237 0
9 -235 -237 0
237 -235 -9 0
9 235 237 0
-14 -237 0
-238 228 -239 0
238 -228 -239 0
-238 -228 239 0
238 228 239 0
-11 -239 0
238 -231 -240 0
-238 231 -240 0
240 -238 -231 0
240 238 231 0
-12 240 0
-160 241 0
-161 241 0
-162 241 0
-228 241 0
-231 241 0
-232 241 0
242 0
238 -241 -243 0
-238 241 -243 0
-238 -241 243 0
238 241 243 0
-13 243 0
160 244 0
161 244 0
162 244 0
228 244 0
231 244 0
232 244 0
-245 0
-238 244 -246 0
238 -244 -246 0
246 -244 -238 0
238 244 246 0
-14 -246 0
-247 231 -248 0
247 -231 -248 0
-247 -231 248 0
247 231 248 0
-11 -248 0
247 -232 -249 0
-247 232 -249 0
249 -247 -232 0
249 247 232 0
-12 249 0
-160 250 0
-161 250 0
-162 250 0
-231 250 0
-232 250 0
160 161 162 231 232 -250 0
247 -250 -251 0
-247 250 -251 0
-247 -250 251 0
247 250 251 0
-13 251 0
160 252 0
161 252 0
162 252 0
231 252 0
232 252 0
-253 0
-247 252 -254 0
247 -252 -254 0
254 -252 -247 0
247 252 254 0
-14 -254 0
-255 232 -256 0
255 -232 -256 0
-255 -232 256 0
255 232 256 0
-11 -256 0
255 -162 -257 0
-255 162 -257 0
257 -255 -162 0
257 255 162 0
-12 257 0
-160 258 0
-161 258 0
-162 258 0
-232 258 0
160 161 162 232 -258 0
255 -258 -259 0
-255 258 -259 0
-255 -258 259 0
255 258 259 0
-13 259 0
160 260 0
161 260 0
162 260 0
232 260 0
-261 0
-255 260 -262 0
255 -260 -262 0
262 -260 -255 0
255 260 262 0
-14 -262 0
-10 263 -264 0
10 -263 -264 0
-10 -263 264 0
10 263 264 0
-11 -264 0
10 -265 -266 0
-10 265 -266 0
266 -10 -265 0
266 10 265 0
-12 266 0
-15 267 0
-17 267 0
-263 267 0
-265 267 0
-268 267 0
15 17 263 265 268 -267 0
10 -267 -269 0
-10 267 -269 0
-10 -267 269 0
10 267 269 0
-13 269 0
17 270 0
15 270 0
263 270 0
265 270 0
268 270 0
-271 0
-10 270 -272 0
10 -270 -272 0
272 -270 -10 0
10 270 272 0
-14 -272 0
-273 265 -274 0
273 -265 -274 0
-273 -265 274 0
273 265 274 0
-11 -274 0
273 -268 -275 0
-273 268 -275 0
275 -273 -268 0
275 273 268 0
-12 275 0
-15 276 0
-17 276 0
-265 276 0
-268 276 0
15 17 265 268 -276 0
273 -276 -277 0
-273 276 -277 0
-273 -276 277 0
273 276 277 0
-13 277 0
17 278 0
15 278 0
265 278 0
268 278 0
-279 0
-273 278 -280 0
273 -278 -280 0
280 -278 -273 0
273 278 280 0
-14 -280 0
-281 268 -282 0
281 -268 -282 0
-281 -268 282 0
281 268 282 0
-11 -282 0
281 -17 -283 0
17 -281 -283 0
283 -281 -17 0
283 281 17 0
-12 283 0
-15 284 0
-17 284 0
-268 284 0
15 17 268 -284 0
281 -284 -285 0
-281 284 -285 0
-281 -284 285 0
281 284 285 0
-13 285 0
17 286 0
15 286 0
268 286 0
-17 -15 -268 -286 0
-281 286 -287 0
281 -286 -287 0
287 -286 -281 0
281 286 287 0
-14 -287 0
15 -288 0
-288 -17 0
-288 -29 0
-288 -31 0
34 -288 0
-288 -35 0
36 -288 0
-288 -37 0
-288 -38 0
83 -288 0
85 -288 0
-288 -88 0
89 -288 0
90 -288 0
-288 -91 0
92 -288 0
137 -288 0
139 -288 0
-288 -142 0
155 -288 0
-288 -157 0
-288 -160 0
-288 -161 0
162 -288 0
-288 -192 0
-288 -194 0
-288 -197 0
198 -288 0
-288 -226 0
-288 -228 0
-288 -231 0
232 -288 0
263 -288 0
-288 -265 0
-288 -268 0
288 0
-289 0
-290 0
-291 0
-292 0
-293 0
-294 0
-295 0
-296 0
